25 40
1 2 1
1 6 4
2 3 4
2 7 5
3 4 2
3 8 1
4 5 1
4 9 2
5 10 2
6 7 2
6 11 4
7 8 1
7 12 2
8 9 2
8 13 3
9 10 4
9 14 3
10 15 3
11 12 3
11 16 2
12 13 2
12 17 4
13 14 1
13 18 4
14 15 5
14 19 5
15 20 3
16 17 1
16 21 1
17 18 1
17 22 2
18 19 5
18 23 2
19 20 5
19 24 4
20 25 3
21 22 1
22 23 4
23 24 4
24 25 2
